37572 40797 
38660 40563 
38055 40715 
38895 40266 
38926 40174 
39250 40038 
39485 39992 
39652 39820 
39198 40089 
39835 39655 
40002 39483 
40237 39233 
40268 39094 
40015 39296 
40503 38844 
40540 38431 
40877 38219 
40905 37855 
40710 38391 
